99 100
96 12 1
5 97 1
41 73 1
47 85 1
42 39 1
18 75 1
95 95 1
16 67 1
1 85 1
42 96 1
10 93 1
47 92 1
22 86 1
78 85 1
36 98 1
39 90 1
53 92 1
27 92 1
25 76 1
43 96 1
48 17 1
36 67 1
25 97 1
8 75 1
4 67 1
8 86 1
86 87 1
35 98 1
22 50 1
41 77 1
10 94 1
73 91 1
66 10 1
35 77 1
45 70 2
24 98 1
95 31 1
42 85 1
42 88 1
37 75 1
45 75 1
10 66 1
50 80 1
72 43 1
9 71 1
39 36 1
20 81 1
46 88 1
35 75 1
30 88 1
2 89 1
93 85 1
22 87 1
33 94 1
66 49 1
21 73 1
48 73 1
50 43 1
22 25 1
32 2 1
24 95 1
17 93 1
4 74 1
5 68 1
12 90 1
46 99 1
98 60 1
39 79 1
74 40 1
36 78 1
68 22 1
90 45 1
81 7 1
37 100 1
70 94 1
43 88 1
46 35 1
1 96 1
50 85 1
73 32 1
31 82 1
75 99 1
40 82 1
43 95 1
27 83 1
62 65 1
42 87 1
35 76 1
85 89 1
11 96 1
6 100 1
39 50 1
5 75 1
21 89 1
31 87 1
5 98 1
36 100 1
43 90 1
19 81 1
100 100 
100 100 
100 100 
100 100 
100 100 
100 100 
100 100 
100 100 
100 100 
100 100 
100 100 
100 100 
100 100 
100 100 
100 100 
100 100 
100 100 
100 100 
100 100 
100 100 
100 100 
100 100 
100 100 
100 100 
100 100 
100 100 
100 100 
100 100 
100 100 
100 100 
100 100 
100 100 
100 100 
100 100 
100 100 
100 100 
100 100 
100 100 
100 100 
100 100 
100 100 
100 100 
100 100 
100 100 
100 100 
100 100 
100 100 
100 100 
100 100 
100 100 
100 100 
100 100 
100 100 
100 100 
100 100 
100 100 
100 100 
100 100 
100 100 
100 100 
100 100 
100 100 
100 100 
100 100 
100 100 
100 100 
100 100 
100 100 
100 100 
100 100 
100 100 
100 100 
100 100 
100 100 
100 100 
100 100 
100 100 
100 100 
100 100 
100 100 
100 100 
100 100 
100 100 
100 100 
100 100 
100 100 
100 100 
100 100 
100 100 
100 100 
100 100 
100 100 
100 100 
100 100 
100 100 
100 100 
100 100 
100 100 
100 100 
100 100 
